N = 4;
Capacity = 20;
nbVehicles = 5;
maxVisitsPerCustomer = 2;
Demand = [19, 9, 15, 40];
Distance = [|
  0, 20, 41, 47, 21
| 20, 0, 60, 58, 30
| 41, 60, 0, 29, 36
| 47, 58, 29, 0, 28
| 21, 30, 36, 28, 0
|];
